NAME : portcgen-27-26
COMMENT : portcgen N=27, seed=26
TYPE : TSP
DIMENSION : 27
EDGE_WEIGHT_TYPE : EUC_2D
NODE_COORD_SECTION
1 -159714 -52039
2 138523 -209979
3 -7855 -76673
4 -204110 318036
5 -163974 79371
6 161465 6260
7 -84813 19880
8 -317770 -95572
9 59886 209894
10 -44903 -325298
11 -261120 293182
12 -140449 -60861
13 -105919 209037
14 -149175 -253638
15 256358 -507049
16 38337 -192188
17 265652 180497
18 -164472 -293921
19 126749 34658
20 268084 -81540
21 -424610 204302
22 -108984 171382
23 342867 -483945
24 383394 210487
25 -415581 -281038
26 53049 359675
27 228028 -208232
